(set-info :source |
 Generated by Alive 0.1
 More info in N. P. Lopes, D. Menendez, S. Nagarakatte, J. Regehr.
 Provably Correct Peephole Optimizations with Alive. In PLDI'15.
|)

(set-info :status unknown)
(declare-fun %B () (_ BitVec 8))
(declare-fun %A () (_ BitVec 8))
(assert
 (let ((?x251139 (ite (and (distinct %B (_ bv0 8)) true) (_ bv1 1) (_ bv0 1))))
 (let ((?x246806 (ite (and (distinct %A (_ bv0 8)) true) (_ bv1 1) (_ bv0 1))))
 (and (distinct (bvor ?x246806 ?x251139) (ite (and (distinct (bvor %A %B) (_ bv0 8)) true) (_ bv1 1) (_ bv0 1))) true))))
(check-sat)
